sat
(:max-memory         18.43
 :memory             18.33
 :nlsat-arith-var    4
 :nlsat-atoms        7
 :nlsat-bool-var     1
 :nlsat-clauses      7
 :nlsat-propagations 7
 :nlsat-stages       5
 :num-allocs         50053
 :rlimit-count       758
 :time               0.00
 :total-time         0.01)
